73 23 15 30 20 40 40 30 40 40 20 30 30 20 30 20 40 20 200 200 200 200 200 200 200 200
2.00 3.00 3.00 4.00 5.00 5.00 7.00 7.00 10.00 10.00 26.00 24.00 28.00 27.00 30.00 27.00 30.00 32.00 23.00 21.00 23.00 21.00 26.00 25.00 23.00 27.00 25.00 30.00 28.00 48.00 44.00 46.00 43.00 51.00 46.00 51.00 53.00 50.00 39.00 37.00 37.00 35.00 40.00 40.00 39.00 36.00 41.00 37.00 40.00 18.00 12.00 46.00 68.00 71.00 3.00 73.00 77.00 45.00 6.00 8.00 58.00 6.00 45.00 72.00 46.00
5.00 3.00 5.00 5.00 6.00 7.00 7.00 10.00 10.00 25.00 23.00 27.00 26.00 29.00 27.00 30.00 31.00 25.00 23.00 24.00 22.00 28.00 26.00 25.00 28.00 26.00 32.00 29.00 49.00 46.00 47.00 44.00 53.00 47.00 52.00 54.00 51.00 41.00 39.00 39.00 37.00 42.00 42.00 40.00 38.00 43.00 38.00 42.00 20.00 10.00 45.00 70.00 73.00 5.00 75.00 79.00 45.00 4.00 10.00 60.00 4.00 45.00 74.00 45.00
2.00 1.00 3.00 2.00 4.00 5.00 7.00 7.00 25.00 21.00 27.00 26.00 29.00 25.00 28.00 30.00 20.00 18.00 19.00 17.00 23.00 22.00 20.00 23.00 21.00 27.00 24.00 44.00 41.00 42.00 39.00 48.00 42.00 47.00 49.00 46.00 36.00 34.00 35.00 32.00 37.00 37.00 36.00 33.00 38.00 34.00 37.00 16.00 14.00 43.00 66.00 68.00 3.00 70.00 74.00 42.00 8.00 6.00 55.00 8.00 42.00 69.00 43.00
3.00 2.00 2.00 4.00 4.00 7.00 7.00 24.00 21.00 26.00 25.00 27.00 25.00 27.00 29.00 21.00 20.00 21.00 19.00 24.00 23.00 21.00 24.00 23.00 28.00 25.00 45.00 42.00 44.00 41.00 49.00 43.00 48.00 50.00 47.00 38.00 36.00 37.00 34.00 39.00 39.00 37.00 35.00 40.00 35.00 39.00 18.00 12.00 43.00 68.00 70.00 4.00 72.00 76.00 42.00 6.00 8.00 56.00 6.00 42.00 71.00 43.00
4.00 2.00 5.00 6.00 7.00 8.00 26.00 22.00 28.00 26.00 29.00 26.00 28.00 30.00 19.00 17.00 19.00 17.00 22.00 21.00 19.00 23.00 21.00 26.00 24.00 43.00 40.00 42.00 39.00 47.00 42.00 47.00 48.00 46.00 35.00 33.00 34.00 31.00 36.00 37.00 35.00 32.00 37.00 33.00 36.00 15.00 15.00 43.00 65.00 67.00 3.00 70.00 73.00 42.00 9.00 5.00 54.00 9.00 42.00 68.00 44.00
3.00 2.00 2.00 5.00 5.00 21.00 18.00 24.00 22.00 25.00 22.00 25.00 27.00 21.00 19.00 20.00 18.00 24.00 22.00 20.00 24.00 22.00 27.00 24.00 45.00 41.00 43.00 40.00 48.00 42.00 47.00 49.00 46.00 39.00 37.00 37.00 34.00 39.00 40.00 38.00 35.00 40.00 36.00 39.00 19.00 12.00 41.00 69.00 71.00 6.00 73.00 76.00 40.00 7.00 10.00 55.00 7.00 40.00 71.00 41.00
2.00 4.00 5.00 5.00 24.00 20.00 26.00 24.00 27.00 23.00 26.00 28.00 18.00 17.00 18.00 16.00 21.00 20.00 18.00 22.00 20.00 25.00 22.00 43.00 39.00 41.00 38.00 46.00 40.00 46.00 47.00 45.00 36.00 34.00 34.00 31.00 36.00 37.00 35.00 32.00 37.00 33.00 36.00 16.00 14.00 41.00 66.00 68.00 5.00 70.00 73.00 40.00 9.00 7.00 53.00 9.00 40.00 68.00 42.00
2.00 3.00 3.00 21.00 17.00 23.00 21.00 24.00 21.00 24.00 25.00 19.00 17.00 18.00 16.00 22.00 20.00 18.00 21.00 19.00 25.00 22.00 43.00 39.00 41.00 37.00 46.00 40.00 45.00 47.00 44.00 38.00 36.00 36.00 33.00 38.00 38.00 36.00 33.00 39.00 34.00 37.00 18.00 13.00 39.00 68.00 69.00 7.00 71.00 74.00 38.00 9.00 10.00 53.00 9.00 38.00 70.00 39.00
5.00 3.00 19.00 16.00 21.00 20.00 23.00 20.00 23.00 25.00 21.00 19.00 20.00 18.00 23.00 22.00 19.00 23.00 21.00 26.00 23.00 44.00 41.00 42.00 39.00 48.00 41.00 46.00 48.00 45.00 40.00 38.00 38.00 35.00 40.00 40.00 38.00 35.00 41.00 36.00 39.00 20.00 12.00 38.00 70.00 71.00 8.00 73.00 76.00 38.00 8.00 12.00 55.00 8.00 38.00 72.00 39.00
3.00 21.00 15.00 23.00 20.00 24.00 19.00 21.00 24.00 16.00 14.00 15.00 13.00 18.00 17.00 14.00 18.00 16.00 21.00 18.00 39.00 36.00 37.00 34.00 43.00 36.00 42.00 43.00 40.00 36.00 34.00 34.00 31.00 36.00 36.00 34.00 31.00 36.00 31.00 35.00 16.00 17.00 37.00 66.00 67.00 10.00 68.00 71.00 35.00 12.00 11.00 50.00 12.00 35.00 67.00 37.00
18.00 14.00 20.00 18.00 21.00 18.00 20.00 22.00 19.00 17.00 18.00 15.00 21.00 19.00 17.00 20.00 18.00 24.00 20.00 42.00 38.00 39.00 36.00 45.00 38.00 43.00 45.00 42.00 39.00 37.00 37.00 34.00 39.00 39.00 37.00 34.00 39.00 34.00 38.00 19.00 14.00 36.00 69.00 70.00 10.00 71.00 74.00 35.00 11.00 13.00 52.00 11.00 35.00 70.00 36.00
10.00 3.00 7.00 5.00 12.00 14.00 11.00 35.00 33.00 33.00 30.00 35.00 33.00 30.00 33.00 30.00 35.00 30.00 52.00 47.00 48.00 43.00 53.00 44.00 50.00 51.00 47.00 55.00 53.00 53.00 50.00 55.00 55.00 53.00 50.00 55.00 50.00 53.00 38.00 20.00 25.00 86.00 85.00 28.00 85.00 86.00 29.00 22.00 32.00 60.00 22.00 31.00 85.00 25.00
10.00 5.00 10.00 4.00 7.00 8.00 26.00 24.00 23.00 20.00 25.00 23.00 20.00 23.00 20.00 25.00 20.00 41.00 37.00 37.00 33.00 43.00 34.00 40.00 41.00 37.00 46.00 44.00 44.00 41.00 46.00 45.00 43.00 40.00 45.00 40.00 43.00 30.00 23.00 22.00 77.00 75.00 25.00 75.00 76.00 22.00 23.00 27.00 50.00 23.00 23.00 75.00 22.00
5.00 2.00 10.00 12.00 8.00 35.00 33.00 33.00 30.00 35.00 33.00 30.00 33.00 30.00 35.00 30.00 51.00 46.00 47.00 42.00 52.00 43.00 49.00 50.00 45.00 56.00 54.00 54.00 51.00 55.00 55.00 53.00 50.00 55.00 50.00 53.00 39.00 23.00 23.00 86.00 85.00 30.00 85.00 86.00 26.00 25.00 33.00 59.00 25.00 29.00 85.00 22.00
5.00 5.00 7.00 5.00 31.00 29.00 29.00 26.00 30.00 28.00 25.00 28.00 25.00 30.00 25.00 46.00 41.00 41.00 37.00 47.00 38.00 43.00 44.00 40.00 52.00 50.00 49.00 46.00 51.00 50.00 49.00 46.00 50.00 45.00 48.00 36.00 25.00 20.00 82.00 80.00 29.00 80.00 80.00 22.00 25.00 32.00 53.00 25.00 24.00 80.00 20.00
10.00 11.00 7.00 36.00 34.00 33.00 31.00 35.00 33.00 30.00 33.00 30.00 35.00 30.00 50.00 46.00 46.00 41.00 52.00 42.00 48.00 49.00 44.00 57.00 55.00 54.00 51.00 56.00 55.00 53.00 50.00 55.00 50.00 53.00 40.00 25.00 21.00 87.00 85.00 32.00 85.00 85.00 25.00 27.00 35.00 58.00 27.00 27.00 85.00 20.00
3.00 5.00 27.00 25.00 25.00 22.00 25.00 24.00 21.00 23.00 20.00 25.00 20.00 40.00 35.00 36.00 31.00 42.00 32.00 38.00 39.00 34.00 48.00 46.00 45.00 42.00 47.00 46.00 44.00 41.00 46.00 41.00 43.00 33.00 27.00 18.00 78.00 75.00 28.00 75.00 75.00 18.00 27.00 30.00 48.00 27.00 20.00 75.00 18.00
5.00 29.00 27.00 26.00 23.00 26.00 25.00 22.00 24.00 21.00 25.00 20.00 40.00 35.00 35.00 30.00 41.00 31.00 37.00 38.00 33.00 49.00 47.00 46.00 43.00 48.00 47.00 45.00 42.00 46.00 42.00 44.00 35.00 30.00 15.00 79.00 75.00 31.00 75.00 75.00 15.00 30.00 33.00 47.00 30.00 17.00 75.00 15.00
33.00 31.00 30.00 28.00 31.00 29.00 26.00 29.00 26.00 30.00 25.00 45.00 40.00 40.00 35.00 46.00 36.00 42.00 42.00 38.00 53.00 52.00 51.00 48.00 52.00 52.00 50.00 47.00 51.00 46.00 49.00 39.00 30.00 15.00 83.00 80.00 33.00 80.00 80.00 18.00 30.00 36.00 52.00 30.00 20.00 80.00 15.00
2.00 2.00 5.00 5.00 5.00 7.00 7.00 8.00 10.00 11.00 25.00 22.00 24.00 22.00 29.00 25.00 29.00 31.00 30.00 20.00 18.00 18.00 15.00 20.00 20.00 18.00 15.00 20.00 15.00 18.00 10.00 33.00 41.00 50.00 50.00 21.00 51.00 54.00 36.00 28.00 18.00 36.00 28.00 34.00 50.00 41.00
2.00 3.00 5.00 5.00 5.00 7.00 7.00 10.00 10.00 26.00 23.00 25.00 23.00 30.00 25.00 30.00 32.00 30.00 22.00 20.00 20.00 17.00 22.00 22.00 20.00 17.00 22.00 17.00 20.00 10.00 31.00 39.00 52.00 52.00 19.00 53.00 56.00 34.00 26.00 17.00 37.00 26.00 33.00 52.00 40.00
3.00 3.00 3.00 4.00 5.00 5.00 8.00 8.00 24.00 21.00 23.00 21.00 28.00 24.00 28.00 30.00 28.00 23.00 21.00 20.00 17.00 22.00 22.00 20.00 17.00 22.00 17.00 20.00 12.00 32.00 38.00 53.00 52.00 21.00 53.00 55.00 33.00 27.00 18.00 35.00 27.00 31.00 52.00 38.00
5.00 4.00 3.00 5.00 5.00 9.00 8.00 26.00 23.00 25.00 22.00 30.00 25.00 30.00 31.00 29.00 25.00 24.00 23.00 20.00 25.00 25.00 23.00 20.00 25.00 20.00 23.00 13.00 30.00 36.00 56.00 55.00 19.00 56.00 58.00 31.00 25.00 17.00 37.00 25.00 30.00 55.00 36.00
2.00 5.00 2.00 5.00 5.00 7.00 21.00 18.00 19.00 17.00 25.00 20.00 25.00 26.00 25.00 22.00 20.00 19.00 17.00 21.00 20.00 18.00 15.00 20.00 15.00 18.00 15.00 36.00 37.00 52.00 50.00 25.00 50.00 52.00 32.00 31.00 22.00 32.00 31.00 29.00 50.00 38.00
3.00 2.00 3.00 5.00 5.00 22.00 19.00 20.00 18.00 26.00 21.00 25.00 27.00 25.00 24.00 22.00 21.00 18.00 23.00 22.00 20.00 17.00 22.00 17.00 20.00 15.00 34.00 36.00 54.00 52.00 23.00 52.00 54.00 30.00 29.00 21.00 33.00 29.00 28.00 52.00 36.00
3.00 2.00 7.00 5.00 25.00 21.00 22.00 19.00 28.00 22.00 27.00 29.00 26.00 26.00 25.00 24.00 21.00 25.00 25.00 23.00 20.00 25.00 20.00 23.00 15.00 32.00 33.00 57.00 55.00 22.00 55.00 57.00 29.00 27.00 20.00 35.00 27.00 27.00 55.00 34.00
3.00 3.00 4.00 21.00 17.00 19.00 16.00 24.00 19.00 24.00 25.00 24.00 25.00 23.00 22.00 19.00 23.00 23.00 21.00 18.00 22.00 17.00 20.00 17.00 35.00 34.00 54.00 52.00 25.00 52.00 54.00 29.00 31.00 23.00 31.00 31.00 26.00 52.00 35.00
5.00 3.00 23.00 19.00 21.00 18.00 26.00 20.00 25.00 27.00 25.00 27.00 25.00 25.00 22.00 26.00 25.00 24.00 21.00 25.00 20.00 23.00 17.00 33.00 32.00 57.00 55.00 24.00 55.00 57.00 27.00 29.00 22.00 33.00 29.00 25.00 55.00 33.00
5.00 18.00 14.00 15.00 13.00 21.00 15.00 20.00 22.00 20.00 25.00 23.00 22.00 19.00 23.00 22.00 20.00 18.00 21.00 17.00 18.00 20.00 39.00 34.00 53.00 50.00 29.00 50.00 51.00 28.00 34.00 26.00 28.00 34.00 25.00 50.00 35.00
22.00 18.00 19.00 15.00 25.00 18.00 23.00 25.00 22.00 29.00 27.00 26.00 23.00 27.00 26.00 25.00 22.00 26.00 21.00 23.00 20.00 35.00 30.00 58.00 55.00 26.00 55.00 56.00 25.00 31.00 25.00 32.00 31.00 22.00 55.00 31.00
5.00 5.00 10.00 5.00 11.00 9.00 11.00 14.00 25.00 25.00 23.00 23.00 22.00 20.00 20.00 20.00 18.00 18.00 16.00 33.00 57.00 44.00 46.00 37.00 46.00 35.00 35.00 36.00 52.00 43.00 11.00 52.00 32.00 36.00 45.00
2.00 5.00 7.00 7.00 8.00 10.00 11.00 26.00 26.00 24.00 23.00 24.00 22.00 21.00 20.00 20.00 18.00 17.00 31.00 53.00 39.00 50.00 42.00 43.00 40.00 40.00 31.00 48.00 40.00 14.00 48.00 27.00 41.00 40.00
5.00 5.00 5.00 6.00 8.00 9.00 28.00 28.00 26.00 25.00 26.00 24.00 23.00 22.00 22.00 20.00 19.00 33.00 54.00 38.00 51.00 42.00 44.00 40.00 40.00 31.00 50.00 42.00 12.00 50.00 27.00 42.00 39.00
10.00 3.00 7.00 9.00 8.00 30.00 29.00 28.00 26.00 28.00 26.00 25.00 24.00 25.00 22.00 22.00 32.00 50.00 33.00 55.00 47.00 42.00 45.00 45.00 26.00 47.00 39.00 17.00 47.00 22.00 46.00 34.00
10.00 5.00 7.00 11.00 30.00 30.00 28.00 28.00 27.00 25.00 25.00 25.00 23.00 23.00 21.00 38.00 60.00 43.00 49.00 39.00 50.00 36.00 35.00 35.00 55.00 47.00 7.00 55.00 31.00 38.00 44.00
5.00 7.00 5.00 33.00 32.00 30.00 29.00 30.00 29.00 28.00 26.00 27.00 25.00 24.00 35.00 53.00 33.00 57.00 48.00 44.00 46.00 45.00 25.00 49.00 42.00 15.00 49.00 21.00 47.00 34.00
2.00 5.00 34.00 33.00 32.00 31.00 31.00 29.00 29.00 28.00 27.00 26.00 25.00 39.00 58.00 38.00 55.00 45.00 49.00 42.00 40.00 30.00 54.00 47.00 10.00 54.00 26.00 44.00 39.00
5.00 36.00 35.00 33.00 33.00 33.00 31.00 31.00 30.00 29.00 28.00 27.00 41.00 60.00 38.00 56.00 46.00 51.00 43.00 40.00 30.00 56.00 49.00 10.00 56.00 26.00 45.00 39.00
38.00 37.00 35.00 34.00 35.00 33.00 32.00 31.00 31.00 29.00 29.00 40.00 57.00 33.00 60.00 50.00 49.00 47.00 45.00 25.00 53.00 47.00 15.00 53.00 21.00 49.00 34.00
2.00 2.00 5.00 3.00 5.00 5.00 7.00 7.00 8.00 9.00 20.00 50.00 59.00 30.00 32.00 36.00 35.00 40.00 53.00 45.00 31.00 35.00 45.00 50.00 33.00 60.00
2.00 3.00 3.00 5.00 5.00 5.00 7.00 7.00 9.00 18.00 49.00 57.00 32.00 34.00 34.00 37.00 41.00 51.00 43.00 29.00 35.00 43.00 48.00 34.00 58.00
3.00 2.00 3.00 3.00 4.00 5.00 5.00 7.00 19.00 49.00 56.00 32.00 33.00 35.00 36.00 40.00 50.00 43.00 30.00 33.00 43.00 47.00 34.00 57.00
5.00 5.00 4.00 3.00 7.00 5.00 7.00 16.00 46.00 54.00 35.00 36.00 32.00 38.00 43.00 48.00 40.00 27.00 33.00 40.00 45.00 37.00 55.00
2.00 2.00 5.00 4.00 6.00 6.00 21.00 51.00 57.00 31.00 31.00 37.00 34.00 38.00 51.00 45.00 32.00 32.00 45.00 48.00 31.00 58.00
2.00 5.00 2.00 5.00 4.00 22.00 52.00 56.00 31.00 30.00 38.00 33.00 37.00 50.00 46.00 33.00 30.00 46.00 46.00 31.00 57.00
3.00 2.00 3.00 4.00 20.00 50.00 54.00 33.00 32.00 36.00 34.00 38.00 48.00 44.00 31.00 30.00 44.00 45.00 33.00 55.00
5.00 2.00 5.00 18.00 47.00 52.00 36.00 35.00 33.00 37.00 41.00 46.00 41.00 29.00 30.00 41.00 43.00 36.00 53.00
5.00 2.00 23.00 52.00 55.00 32.00 30.00 38.00 32.00 36.00 48.00 47.00 34.00 28.00 47.00 45.00 30.00 56.00
3.00 19.00 48.00 51.00 37.00 35.00 34.00 37.00 40.00 44.00 42.00 30.00 28.00 42.00 41.00 35.00 52.00
22.00 51.00 52.00 34.00 32.00 38.00 33.00 36.00 46.00 46.00 33.00 26.00 46.00 42.00 32.00 53.00
78 140
499 553
863 931
584 656
950 1026
683 741
0 1130
1057 1125
958 1040
779 845
869 941
176 228
1042 1106
263 327
0 1109
358 416
633 711
0 1110
455 513
0 1136
11 73
0 1133
13 70
0 1131
158 232
672 744
263 311
438 510
0 1126
0 1125
0 1112
0 1114
355 437
0 1113
655 725
0 1110
569 619
472 532
374 440
143 199
49 109
239 289
789 849
325 387
421 475
601 665
698 754
0 1122
1011 1073
0 1123
0 1236
0 1236
0 1236
0 1236
0 1236
0 1236
0 1236
0 1236
0 1236
0 1236
0 1236
0 1236
0 1236
0 1236
0 1236
0 1236
0 1236
0 1236
0 1236
0 1236
0 1236
0 1236
0 1236
30.00 48.00 50.00 52.00 15.00 55.00 59.00 44.00 24.00 11.00 44.00 24.00 43.00 53.00 49.00 0 0 0 0 0 0 0 0
10 30 10 10 10 20 20 20 10 10 10 20 30 10 40 40 20 20 10 10 20 20 10 10 40 10 10 20 10 10 20 30 40 20 10 10 20 30 20 10 10 20 10 10 10 30 10 10 10 10